experiment/data/lkh-res/Vrp-Set-X-n655/Vrp-Set-X-n655-lkh/0.lkh1.vrp
NAME : 0
COMMENT : CVRP Instance
TYPE : CVRP
DIMENSION : 655
EDGE_WEIGHT_TYPE : EUC_2D
CAPACITY : 5
NODE_COORD_SECTION
1	50000	50000
2	34600	79300
3	69200	96600
4	17100	66600
5	28700	79500
6	13300	66800
7	70400	95900
8	40000	79500
9	19500	89700
10	84500	93100
11	82900	72400
12	30000	86000
13	21800	82900
14	11600	78000
15	23700	63100
16	12600	68100
17	82500	92200
18	31500	91300
19	27100	76900
20	53000	91700
21	15600	90000
22	26500	80800
23	17100	74200
24	38800	77600
25	15300	66400
26	39300	85500
27	32000	75100
28	59400	86200
29	21300	81000
30	72300	92400
31	19200	87700
32	66100	91000
33	15300	72900
34	33400	81200
35	55800	94400
36	50200	78300
37	26600	74700
38	2300	75300
39	18000	58400
40	70200	85400
41	35400	64900
42	41200	70900
43	72100	92800
44	16800	67400
45	36400	64000
46	37500	72700
47	24700	97700
48	33200	85300
49	66400	92900
50	64600	90100
51	24800	72300
52	11600	62800
53	12300	69000
54	24700	53900
55	71500	96600
56	31400	71200
57	23700	74700
58	20200	67900
59	40900	94600
60	68400	87900
61	14200	57600
62	20400	63600
63	44000	81700
64	69700	88200
65	77200	97700
66	17700	88900
67	34100	78700
68	39100	72500
69	8200	76400
70	73400	83400
71	35200	73200
72	64600	55300
73	10200	63100
74	35400	61200
75	37400	86500
76	42100	81200
77	33500	83500
78	64600	93100
79	56000	91000
80	70200	96500
81	27300	79000
82	32900	75000
83	30000	58600
84	85000	85500
85	23500	68300
86	39300	95300
87	38900	92300
88	34100	85100
89	78100	94600
90	32900	86200
91	47200	87300
92	35600	89500
93	19400	73300
94	5300	77700
95	13300	59600
96	60600	97100
97	27300	81200
98	22300	81200
99	15600	82000
100	31700	65000
101	17700	79000
102	38900	74700
103	66300	94400
104	33600	94000
105	28400	73900
106	73700	97700
107	24900	95600
108	43300	85200
109	29400	85600
110	28500	87900
111	28000	81800
112	17500	88500
113	29500	74700
114	66900	90200
115	76300	96900
116	13800	63200
117	19300	59300
118	22000	81800
119	14500	80000
120	73900	96000
121	7200	67200
122	75200	94000
123	63900	89400
124	32900	72600
125	79900	98700
126	11800	34300
127	66000	91700
128	38200	74100
129	24200	62600
130	16400	82400
131	35000	88100
132	50900	88600
133	19000	41600
134	7200	65600
135	35300	65900
136	13200	67700
137	36400	77100
138	89300	90000
139	14000	64500
140	41100	75700
141	39700	80500
142	17100	64400
143	48800	62500
144	26000	81600
145	76400	98000
146	14900	65700
147	76900	85500
148	71600	92500
149	19100	84300
150	56600	96600
151	62000	90800
152	35800	72700
153	26800	70500
154	40600	92700
155	13900	94300
156	19200	76200
157	54900	93100
158	17700	66400
159	43300	70700
160	30100	75300
161	36100	84000
162	12000	76400
163	17800	66400
164	10900	75100
165	31800	52900
166	41900	95200
167	30900	73700
168	28900	78700
169	35000	81200
170	8800	79400
171	15100	65800
172	18500	88300
173	41100	46700
174	60300	87200
175	34200	70800
176	31700	74700
177	57900	98800
178	32900	55500
179	36100	73100
180	3700	70600
181	39400	55800
182	15400	74500
183	32400	70300
184	37000	91200
185	72700	90000
186	15000	70200
187	38300	69400
188	15100	67900
189	14900	65400
190	14400	63800
191	26900	63500
192	21200	84200
193	21700	64400
194	25000	59700
195	83500	95300
196	62000	94900
197	32400	91000
198	34400	79300
199	17600	92200
200	37000	74600
201	20400	68200
202	26200	83000
203	32800	48400
204	38500	93100
205	70600	95700
206	20100	65500
207	30000	73700
208	37900	79100
209	72800	72000
210	29600	85800
211	15400	61300
212	66300	94200
213	13500	90800
214	80500	91000
215	64600	87200
216	11300	69200
217	34900	55400
218	29000	73700
219	43000	66800
220	58800	97700
221	23600	65600
222	37000	87100
223	28600	72700
224	8900	67100
225	13600	66700
226	19500	76100
227	18800	70500
228	37700	84600
229	37500	72800
230	26900	76300
231	23500	69400
232	45200	82600
233	28100	90900
234	21500	58500
235	32500	70700
236	41900	81700
237	39200	70400
238	15200	54400
239	13600	58000
240	64300	99600
241	19800	73100
242	15500	55600
243	34500	85900
244	9900	66600
245	51900	72200
246	16800	75700
247	29500	82400
248	67600	80000
249	22900	68600
250	77200	94100
251	29400	72900
252	63700	92600
253	46400	79500
254	34600	68100
255	32700	75800
256	66500	96500
257	9800	69000
258	85200	86000
259	77000	88900
260	12400	59800
261	23500	83100
262	68000	96900
263	32300	80000
264	52500	93100
265	12000	77200
266	83900	97800
267	21400	65200
268	66000	96500
269	29700	62600
270	23600	73800
271	14800	85000
272	13800	69900
273	33600	77300
274	60500	73800
275	19000	64800
276	11900	62000
277	19800	85300
278	28800	51400
279	88800	88800
280	16500	54200
281	68200	93400
282	79400	84400
283	75900	98500
284	41600	81900
285	72400	96600
286	40300	81200
287	27000	78900
288	48200	81800
289	6900	53700
290	73400	94600
291	29200	67900
292	34600	55600
293	64400	94300
294	68100	94300
295	32300	76500
296	51400	78200
297	14100	71300
298	62400	87000
299	62500	95200
300	35600	92300
301	35600	57600
302	32800	80100
303	18500	64800
304	28700	63300
305	68900	95600
306	64500	95800
307	13700	89500
308	29900	97500
309	44800	75200
310	34800	64200
311	15100	63100
312	67500	91000
313	24500	77600
314	43400	70500
315	28300	80400
316	88900	92400
317	18700	78100
318	48600	66200
319	35000	84400
320	51900	72000
321	72000	92400
322	25900	80000
323	51400	71200
324	44300	52100
325	42100	81800
326	17400	76500
327	75000	96900
328	48100	83100
329	28100	60000
330	14100	95900
331	29900	73000
332	32000	84000
333	34100	65100
334	36500	73000
335	78900	95300
336	68000	90600
337	14500	74000
338	30400	81000
339	29000	74100
340	46700	97300
341	60000	98000
342	28800	61300
343	30900	76100
344	15300	90700
345	30700	83400
346	33500	80900
347	98900	94000
348	17600	65500
349	75900	97500
350	34500	82100
351	65800	97100
352	74900	84100
353	38000	75400
354	31600	64000
355	17700	80300
356	13300	65000
357	25400	80300
358	31100	83800
359	29300	78200
360	49300	85500
361	70400	71500
362	10200	74500
363	22600	80600
364	14700	60000
365	43700	83700
366	26200	67100
367	15200	70600
368	31000	73800
369	14600	59400
370	86400	90500
371	27100	79200
372	31700	84500
373	60700	72400
374	40700	56300
375	46900	98600
376	69300	91800
377	23500	64100
378	40500	83300
379	61700	89000
380	50800	89300
381	36100	82200
382	71200	98400
383	57700	89500
384	22500	55000
385	17100	39700
386	39100	78000
387	41800	84500
388	15500	76800
389	13500	55300
390	38100	89400
391	38300	71300
392	63100	84200
393	31300	89900
394	77700	73800
395	28900	83100
396	69900	92300
397	32300	70600
398	30900	77400
399	23200	68900
400	23200	65400
401	54000	96600
402	37300	83000
403	13700	74200
404	20500	69300
405	17800	82900
406	20300	66300
407	35400	76700
408	21200	65700
409	37000	89000
410	30000	82000
411	14200	64300
412	27400	81600
413	35800	66500
414	33000	38700
415	15200	81500
416	52200	76800
417	23200	68800
418	17900	63000
419	35900	62000
420	27600	72500
421	26900	74100
422	30000	88100
423	23400	49500
424	84800	97100
425	14100	57600
426	15800	72200
427	14000	68700
428	29300	76700
429	25000	87000
430	57100	76900
431	16200	70800
432	23600	89100
433	14200	76600
434	47000	86000
435	40900	94100
436	29300	64300
437	21900	90700
438	43800	50000
439	38100	68900
440	18600	77800
441	29800	70600
442	14900	68100
443	74500	73100
444	31400	70000
445	25200	79200
446	21800	88900
447	28600	86700
448	33100	66200
449	81700	97600
450	21000	76700
451	6000	63500
452	29000	81400
453	35600	86400
454	37700	75100
455	75900	94700
456	20900	91400
457	34800	82300
458	60000	94000
459	28300	74100
460	21900	94300
461	33400	75400
462	14600	70100
463	24500	91400
464	33300	69700
465	70000	97500
466	35400	81500
467	28100	90300
468	39300	87600
469	31300	79400
470	11600	62900
471	35000	74600
472	45700	83600
473	36000	83300
474	72300	79300
475	32200	92200
476	37300	83500
477	18200	72500
478	61200	98400
479	27600	78800
480	33700	87100
481	15700	71200
482	18000	71800
483	11000	75100
484	47800	86400
485	19800	71300
486	9700	78200
487	24500	79900
488	36600	75300
489	70500	86000
490	25100	74000
491	33100	73600
492	67800	95500
493	35700	81900
494	17000	77000
495	31000	71000
496	13800	65100
497	15700	69800
498	29900	52000
499	25300	78400
500	31400	73500
501	23800	90300
502	75300	79400
503	11600	77900
504	2500	78800
505	11500	83700
506	19100	60500
507	3900	80300
508	26900	80900
509	33300	84500
510	10300	58100
511	39000	84900
512	67800	97300
513	36800	73900
514	21800	73300
515	69800	97300
516	74200	93500
517	33800	81400
518	27200	63200
519	9600	62100
520	20000	77800
521	74100	91100
522	72800	99000
523	37400	75500
524	62800	92200
525	71300	84200
526	42600	57400
527	24300	64300
528	73600	89100
529	37900	85000
530	34800	84500
531	37000	70100
532	28100	76100
533	12100	73000
534	18900	70300
535	40500	74700
536	72200	82700
537	38000	63800
538	19200	67900
539	32300	68000
540	19400	72300
541	67500	99400
542	39100	87200
543	75400	98400
544	31900	83800
545	28900	91700
546	46600	76400
547	40900	80700
548	30200	90800
549	14000	81700
550	30300	80300
551	47900	91300
552	4200	54800
553	34900	83400
554	70200	99500
555	68600	90100
556	37900	69800
557	65900	92400
558	36200	86700
559	29000	70100
560	15700	70200
561	28900	97800
562	23900	74400
563	31200	82000
564	74200	98600
565	19500	56500
566	33900	78900
567	19100	70000
568	34100	97200
569	25900	79400
570	20000	72500
571	21900	68500
572	37800	79300
573	32900	84600
574	32600	61700
575	64000	79300
576	31700	86600
577	27900	81700
578	94200	96000
579	36900	72800
580	68800	97800
581	19000	88100
582	13600	60800
583	18400	61100
584	8500	68900
585	50700	53300
586	32600	86000
587	27900	80300
588	68800	98400
589	65300	91100
590	36000	74700
591	31900	74400
592	39000	74100
593	25200	87300
594	65700	98100
595	10400	72100
596	36300	91100
597	15400	69500
598	66700	91000
599	18500	71400
600	89600	80500
601	7300	70900
602	32400	72500
603	25800	81000
604	23300	73400
605	79400	89600
606	26700	66400
607	8400	66700
608	69200	95300
609	29900	85800
610	19300	78000
611	64700	84400
612	42700	68000
613	22700	91400
614	5700	73800
615	70800	99400
616	24900	79200
617	28300	65500
618	14600	69400
619	26300	68600
620	10500	70600
621	24100	83700
622	31200	70400
623	19900	74800
624	37000	88200
625	22700	64400
626	33100	67000
627	29500	83600
628	5900	72300
629	20100	64700
630	66200	73700
631	24900	65500
632	18300	83500
633	34300	58700
634	28500	81600
635	77000	93000
636	35400	80400
637	33100	90100
638	81700	99500
639	17200	67000
640	39700	95000
641	31700	78300
642	39100	90000
643	30900	79700
644	32400	95900
645	43700	69500
646	7700	61300
647	36100	89400
648	72100	98600
649	27200	77000
650	68800	87100
651	70800	91700
652	38000	84700
653	35900	93100
654	8300	84700
655	18500	71200
DEMAND_SECTION
1	0
2	1
3	1
4	1
5	1
6	1
7	1
8	1
9	1
10	1
11	1
12	1
13	1
14	1
15	1
16	1
17	1
18	1
19	1
20	1
21	1
22	1
23	1
24	1
25	1
26	1
27	1
28	1
29	1
30	1
31	1
32	1
33	1
34	1
35	1
36	1
37	1
38	1
39	1
40	1
41	1
42	1
43	1
44	1
45	1
46	1
47	1
48	1
49	1
50	1
51	1
52	1
53	1
54	1
55	1
56	1
57	1
58	1
59	1
60	1
61	1
62	1
63	1
64	1
65	1
66	1
67	1
68	1
69	1
70	1
71	1
72	1
73	1
74	1
75	1
76	1
77	1
78	1
79	1
80	1
81	1
82	1
83	1
84	1
85	1
86	1
87	1
88	1
89	1
90	1
91	1
92	1
93	1
94	1
95	1
96	1
97	1
98	1
99	1
100	1
101	1
102	1
103	1
104	1
105	1
106	1
107	1
108	1
109	1
110	1
111	1
112	1
113	1
114	1
115	1
116	1
117	1
118	1
119	1
120	1
121	1
122	1
123	1
124	1
125	1
126	1
127	1
128	1
129	1
130	1
131	1
132	1
133	1
134	1
135	1
136	1
137	1
138	1
139	1
140	1
141	1
142	1
143	1
144	1
145	1
146	1
147	1
148	1
149	1
150	1
151	1
152	1
153	1
154	1
155	1
156	1
157	1
158	1
159	1
160	1
161	1
162	1
163	1
164	1
165	1
166	1
167	1
168	1
169	1
170	1
171	1
172	1
173	1
174	1
175	1
176	1
177	1
178	1
179	1
180	1
181	1
182	1
183	1
184	1
185	1
186	1
187	1
188	1
189	1
190	1
191	1
192	1
193	1
194	1
195	1
196	1
197	1
198	1
199	1
200	1
201	1
202	1
203	1
204	1
205	1
206	1
207	1
208	1
209	1
210	1
211	1
212	1
213	1
214	1
215	1
216	1
217	1
218	1
219	1
220	1
221	1
222	1
223	1
224	1
225	1
226	1
227	1
228	1
229	1
230	1
231	1
232	1
233	1
234	1
235	1
236	1
237	1
238	1
239	1
240	1
241	1
242	1
243	1
244	1
245	1
246	1
247	1
248	1
249	1
250	1
251	1
252	1
253	1
254	1
255	1
256	1
257	1
258	1
259	1
260	1
261	1
262	1
263	1
264	1
265	1
266	1
267	1
268	1
269	1
270	1
271	1
272	1
273	1
274	1
275	1
276	1
277	1
278	1
279	1
280	1
281	1
282	1
283	1
284	1
285	1
286	1
287	1
288	1
289	1
290	1
291	1
292	1
293	1
294	1
295	1
296	1
297	1
298	1
299	1
300	1
301	1
302	1
303	1
304	1
305	1
306	1
307	1
308	1
309	1
310	1
311	1
312	1
313	1
314	1
315	1
316	1
317	1
318	1
319	1
320	1
321	1
322	1
323	1
324	1
325	1
326	1
327	1
328	1
329	1
330	1
331	1
332	1
333	1
334	1
335	1
336	1
337	1
338	1
339	1
340	1
341	1
342	1
343	1
344	1
345	1
346	1
347	1
348	1
349	1
350	1
351	1
352	1
353	1
354	1
355	1
356	1
357	1
358	1
359	1
360	1
361	1
362	1
363	1
364	1
365	1
366	1
367	1
368	1
369	1
370	1
371	1
372	1
373	1
374	1
375	1
376	1
377	1
378	1
379	1
380	1
381	1
382	1
383	1
384	1
385	1
386	1
387	1
388	1
389	1
390	1
391	1
392	1
393	1
394	1
395	1
396	1
397	1
398	1
399	1
400	1
401	1
402	1
403	1
404	1
405	1
406	1
407	1
408	1
409	1
410	1
411	1
412	1
413	1
414	1
415	1
416	1
417	1
418	1
419	1
420	1
421	1
422	1
423	1
424	1
425	1
426	1
427	1
428	1
429	1
430	1
431	1
432	1
433	1
434	1
435	1
436	1
437	1
438	1
439	1
440	1
441	1
442	1
443	1
444	1
445	1
446	1
447	1
448	1
449	1
450	1
451	1
452	1
453	1
454	1
455	1
456	1
457	1
458	1
459	1
460	1
461	1
462	1
463	1
464	1
465	1
466	1
467	1
468	1
469	1
470	1
471	1
472	1
473	1
474	1
475	1
476	1
477	1
478	1
479	1
480	1
481	1
482	1
483	1
484	1
485	1
486	1
487	1
488	1
489	1
490	1
491	1
492	1
493	1
494	1
495	1
496	1
497	1
498	1
499	1
500	1
501	1
502	1
503	1
504	1
505	1
506	1
507	1
508	1
509	1
510	1
511	1
512	1
513	1
514	1
515	1
516	1
517	1
518	1
519	1
520	1
521	1
522	1
523	1
524	1
525	1
526	1
527	1
528	1
529	1
530	1
531	1
532	1
533	1
534	1
535	1
536	1
537	1
538	1
539	1
540	1
541	1
542	1
543	1
544	1
545	1
546	1
547	1
548	1
549	1
550	1
551	1
552	1
553	1
554	1
555	1
556	1
557	1
558	1
559	1
560	1
561	1
562	1
563	1
564	1
565	1
566	1
567	1
568	1
569	1
570	1
571	1
572	1
573	1
574	1
575	1
576	1
577	1
578	1
579	1
580	1
581	1
582	1
583	1
584	1
585	1
586	1
587	1
588	1
589	1
590	1
591	1
592	1
593	1
594	1
595	1
596	1
597	1
598	1
599	1
600	1
601	1
602	1
603	1
604	1
605	1
606	1
607	1
608	1
609	1
610	1
611	1
612	1
613	1
614	1
615	1
616	1
617	1
618	1
619	1
620	1
621	1
622	1
623	1
624	1
625	1
626	1
627	1
628	1
629	1
630	1
631	1
632	1
633	1
634	1
635	1
636	1
637	1
638	1
639	1
640	1
641	1
642	1
643	1
644	1
645	1
646	1
647	1
648	1
649	1
650	1
651	1
652	1
653	1
654	1
655	1
DEPOT_SECTION
1
-1
EOF
