experiment/data/lkh-res/Vrp-Set-X-n655/Vrp-Set-X-n655-lkh/0.lkh1.tour
NAME : 0.10714328.tour
COMMENT : Length = 10714328
COMMENT : Found by LKH-3 [Keld Helsgaun] Tue Apr  9 13:03:38 2024
TYPE : TOUR
DIMENSION : 785
TOUR_SECTION
1
172
66
344
21
112
759
259
605
214
521
528
740
568
308
561
644
104
673
346
34
517
350
457
736
410
247
395
634
452
728
262
512
588
580
3
658
285
106
522
648
55
710
440
317
101
355
29
730
25
136
427
442
188
717
267
408
406
58
201
755
502
282
147
352
70
782
148
321
43
30
185
713
35
401
375
340
551
783
379
151
524
458
383
780
479
81
371
569
287
711
65
145
283
543
564
744
393
18
475
197
637
719
175
235
397
183
464
715
276
519
73
470
52
664
318
36
296
416
323
685
75
222
558
453
243
749
56
495
622
444
539
712
623
326
494
388
246
679
119
549
415
99
130
743
557
49
212
103
78
746
646
451
134
121
607
761
471
273
295
255
461
779
360
132
91
484
434
774
402
476
228
529
652
707
449
638
125
335
89
700
17
195
266
424
10
686
256
541
554
615
382
757
113
160
343
398
641
723
535
102
592
68
391
708
268
351
594
240
478
733
139
496
356
6
225
778
79
157
264
20
380
684
153
490
37
421
420
699
28
174
298
392
575
718
294
492
305
608
281
766
485
477
482
599
655
683
332
372
573
509
77
693
84
258
279
600
11
678
414
126
385
133
173
657
438
165
178
292
217
663
435
59
640
86
166
737
302
563
345
358
544
682
16
257
584
224
244
762
441
331
251
223
559
765
336
312
598
114
215
706
162
265
503
14
433
705
22
144
603
357
322
671
537
413
135
41
45
676
123
50
589
127
32
784
378
511
26
542
387
694
439
187
556
237
42
696
611
60
650
489
40
726
617
606
366
619
291
741
428
649
19
230
532
742
635
250
455
122
516
691
389
289
552
510
239
731
194
129
15
191
518
721
2
198
566
67
407
781
280
238
242
425
61
772
234
117
39
565
384
747
469
643
550
338
263
701
85
249
417
399
231
777
82
27
176
591
491
764
51
604
270
57
562
748
5
315
587
168
359
770
361
209
443
394
72
662
596
300
653
184
390
688
547
284
236
325
76
675
446
9
581
31
277
666
297
533
164
483
403
767
527
377
400
221
631
769
196
299
306
293
252
775
386
141
286
8
140
738
202
429
593
110
447
714
309
253
328
288
546
725
506
583
418
303
275
720
450
520
610
156
226
724
432
437
456
613
501
771
555
376
396
651
64
756
636
169
466
493
381
785
12
609
210
109
627
672
515
465
80
7
205
697
354
100
436
304
269
703
48
586
90
480
88
760
630
474
536
525
248
722
468
642
87
204
154
690
163
158
4
44
639
692
320
245
430
274
373
709
545
107
47
460
463
732
128
454
353
523
200
745
307
213
155
330
199
659
374
419
74
301
181
661
272
595
620
216
53
729
290
120
327
349
115
751
218
105
459
339
207
660
311
190
411
116
211
698
624
409
647
92
131
752
553
530
319
161
473
702
254
626
448
333
310
681
63
365
108
472
232
674
364
582
260
95
369
750
13
192
149
632
405
763
570
540
93
241
514
695
180
38
504
507
94
739
513
590
71
152
531
704
576
548
233
467
422
677
498
278
54
423
203
667
62
629
206
193
625
753
538
560
367
481
431
665
601
628
614
69
362
768
370
316
578
347
138
680
645
314
159
612
219
670
567
534
227
404
571
773
24
208
572
137
488
758
602
167
368
500
124
754
23
182
337
33
426
689
83
329
342
574
633
669
150
177
220
341
96
734
348
171
146
189
142
735
179
334
579
229
46
716
499
445
616
487
313
727
363
98
118
261
621
687
111
577
412
97
508
668
597
618
462
186
497
776
271
505
654
170
486
656
324
526
143
585
-1
EOF
